
List of user-set options:

                                    Name   Value                used
                           compl_inf_tol = 1                     yes
                         constr_viol_tol = 1                     yes
                            dual_inf_tol = 1000                  yes
                           linear_solver = ma97                  yes
                              ma86_small = 1e-30                  no
                                  ma86_u = 0.0001                 no
                              ma97_order = best                  yes
                              ma97_small = 1e-30                 yes
                            ma97_switch1 = at_start              yes
                            ma97_switch2 = od_hd_reuse           yes
                                  ma97_u = 1e-06                 yes
                               ma97_umax = 0.5                   yes
                                max_iter = 1000                  yes
                    max_refinement_steps = 20                    yes
                    min_refinement_steps = 5                     yes
                                 mu_init = 1e-06                 yes
           mu_superlinear_decrease_power = 1.25                  yes
                   nlp_scaling_min_value = 1e-08                 yes
                        option_file_name = Preset_Case:_408_NCP.opt  yes
                             output_file = ./tmp/Preset_Case:_408_NCP.output  yes
                      print_user_options = yes                   yes
        required_infeasibility_reduction = 1                      no
                                     tol = 1e-08                 yes
                   warm_start_bound_frac = 1e-20                 yes
                   warm_start_bound_push = 1e-20                 yes
                   warm_start_init_point = yes                   yes
              warm_start_mult_bound_push = 1e-20                 yes
                warm_start_mult_init_max = 1e+40                 yes
             warm_start_slack_bound_frac = 1e-20                 yes
             warm_start_slack_bound_push = 1e-20                 yes

******************************************************************************
This program contains Ipopt, a library for large-scale nonlinear optimization.
 Ipopt is released as open source code under the Eclipse Public License (EPL).
         For more information visit http://projects.coin-or.org/Ipopt
******************************************************************************

This is Ipopt version 3.12.10, running with linear solver ma97.

Number of nonzeros in equality constraint Jacobian...:   117167
Number of nonzeros in inequality constraint Jacobian.:      213
Number of nonzeros in Lagrangian Hessian.............:    47513

Total number of variables............................:    29977
                     variables with only lower bounds:    11312
                variables with lower and upper bounds:    15135
                     variables with only upper bounds:        0
Total number of equality constraints.................:    29864
Total number of inequality constraints...............:       25
        inequality constraints with only lower bounds:        4
   inequality constraints with lower and upper bounds:        0
        inequality constraints with only upper bounds:       21

iter    objective    inf_pr   inf_du lg(mu)  ||d||  lg(rg) alpha_du alpha_pr  ls
   0 -1.5519366e-01 3.80e-01 2.00e+00  -6.0 0.00e+00    -  0.00e+00 0.00e+00   0
In iteration 0, 9 Slacks too small, adjusting variable bounds
   1 -1.5519366e-01 3.80e-01 3.66e+02  -6.0 1.06e+10    -  3.65e-14 4.52e-19h  1
   2 -1.5501396e-01 3.54e-01 2.87e+03  -6.0 1.17e+02    -  5.61e-07 6.54e-02h  1
   3 -1.5501415e-01 3.54e-01 1.02e+04  -6.0 3.57e-01    -  7.47e-01 3.33e-03h  1
   4 -1.5499546e-01 3.39e-01 8.61e+03  -6.0 9.43e+01    -  3.74e-02 4.23e-02h  1
   5 -1.5495505e-01 3.31e-01 2.46e+04  -6.0 8.38e+01    -  9.34e-02 2.55e-02h  1
   6 -1.5431725e-01 3.15e-01 5.18e+04  -6.0 6.84e+01    -  2.30e-01 4.81e-02h  3
   7 -1.4210456e-01 2.73e-01 2.61e+04  -6.0 7.02e+01    -  6.21e-04 1.32e-01h  1
   8 -1.4210548e-01 2.73e-01 3.26e+04  -6.0 3.68e+01   0.0 5.43e-05 4.54e-05h  1
   9 -1.4246539e-01 2.73e-01 5.85e+04  -6.0 3.70e+01  -0.5 1.06e-04 4.74e-04h  1
iter    objective    inf_pr   inf_du lg(mu)  ||d||  lg(rg) alpha_du alpha_pr  ls
  10 -1.5318159e-01 2.73e-01 1.28e+05  -6.0 3.67e+01  -1.0 5.08e-04 1.37e-03h  1
  11 -4.9784005e-02 2.71e-01 3.40e+05  -6.0 3.71e+01  -1.4 3.85e-07 7.51e-03h  1
  12 -9.0166863e-02 2.70e-01 4.13e+05  -6.0 3.68e+01  -1.0 2.49e-03 3.49e-03f  1
  13 -9.2723197e-02 2.69e-01 3.66e+05  -6.0 3.67e+01  -0.6 5.40e-03 1.43e-03f  1
  14 -1.5312225e-01 2.69e-01 2.78e+05  -6.0 3.70e+01  -1.1 1.37e-03 2.71e-03f  1
  15  8.2891292e-02 2.56e-01 7.69e+05  -6.0 3.74e+01  -1.5 4.35e-04 4.61e-02h  2
  16 -1.5289350e-01 2.54e-01 8.95e+05  -6.0 3.69e+01  -1.1 3.43e-02 7.77e-03f  1
  17r-1.5289350e-01 2.54e-01 1.00e+03  -0.6 0.00e+00   1.1 0.00e+00 1.78e-08R  2
  18r-1.5289315e-01 2.54e-01 1.00e+03  -0.6 2.08e+05    -  9.14e-08 5.61e-10f  2
  19 -1.5241575e-01 2.31e-01 1.33e+05  -6.0 4.14e+01    -  2.18e-01 9.22e-02h  1
iter    objective    inf_pr   inf_du lg(mu)  ||d||  lg(rg) alpha_du alpha_pr  ls
  20 -1.5069363e-01 1.68e-01 9.61e+04  -6.0 3.84e+01    -  2.70e-01 2.73e-01H  1
  21 -1.4983001e-01 1.65e-01 8.26e+04  -6.0 2.71e+01    -  1.53e-01 1.52e-01h  1
  22 -1.4915741e-01 1.89e-01 2.38e+05  -6.0 2.42e+01    -  3.90e-01 1.36e-01h  2
  23 -1.4874833e-01 1.95e-01 2.72e+05  -6.0 2.07e+01    -  2.76e-01 7.92e-02h  3
  24 -1.4807043e-01 2.31e-01 2.69e+05  -6.0 2.12e+01    -  3.78e-01 1.25e-01h  3
  25 -1.4756912e-01 2.42e-01 2.50e+05  -6.0 1.98e+01    -  4.30e-01 8.71e-02h  4
  26 -1.4736598e-01 2.39e-01 2.34e+05  -6.0 3.10e+01    -  5.13e-01 2.90e-02h  5
  27 -1.4719977e-01 2.36e-01 2.22e+05  -6.0 2.43e+01    -  4.01e-01 2.39e-02h  6
  28 -1.4719977e-01 2.36e-01 6.50e+06  -6.0 5.77e+00   0.6 6.78e-03 3.48e-05h  1
  29r-1.4719977e-01 2.36e-01 1.00e+03  -1.1 0.00e+00   0.2 0.00e+00 3.14e-07R  5
iter    objective    inf_pr   inf_du lg(mu)  ||d||  lg(rg) alpha_du alpha_pr  ls
  30r-1.4744352e-01 2.36e-01 1.00e+03  -1.1 4.20e+04    -  1.70e-06 2.76e-06f  1
  31r-1.4708552e-01 2.28e-01 1.00e+03  -1.1 3.37e+03    -  3.19e-05 3.74e-05f  1
  32 -1.4707268e-01 2.27e-01 2.17e+07  -6.0 1.51e+01    -  2.00e-01 3.85e-03h  1
  33 -1.4636369e-01 2.11e-01 9.91e+08  -6.0 2.07e+01    -  3.85e-03 1.73e-01h  1
  34 -1.4635789e-01 2.10e-01 9.88e+08  -6.0 1.21e+01    -  1.80e-01 2.64e-03h  1
  35 -1.4573827e-01 2.19e-01 7.54e+08  -6.0 1.47e+01    -  4.86e-01 2.37e-01h  1
  36 -1.4552289e-01 2.10e-01 6.44e+08  -6.0 1.30e+01    -  5.29e-01 1.46e-01h  3
  37 -1.4432401e-01 1.60e-01 1.16e+08  -6.0 1.17e+01    -  5.17e-01 8.19e-01H  1
  38 -1.4497363e-01 5.21e-02 1.64e+07  -6.0 2.80e+00    -  6.29e-01 8.59e-01h  1
  39 -1.4678900e-01 1.48e-02 5.00e+06  -6.0 4.69e+00    -  4.04e-01 6.96e-01h  1
iter    objective    inf_pr   inf_du lg(mu)  ||d||  lg(rg) alpha_du alpha_pr  ls
  40 -1.4684182e-01 1.46e-02 4.94e+06  -6.0 9.10e+00    -  3.07e-01 1.06e-02h  1
  41 -1.4960811e-01 2.21e-01 7.84e+07  -6.0 6.01e+02    -  1.06e-03 1.59e-02h  2
  42 -1.5068291e-01 2.05e-01 2.30e+07  -6.0 1.46e+01    -  1.58e-01 6.99e-01h  1
  43 -1.5501163e-01 3.62e-02 1.78e+06  -6.0 8.71e+00    -  6.00e-01 9.24e-01h  1
  44 -1.6174684e-01 2.09e-01 3.36e+05  -6.0 1.82e+01    -  7.57e-01 8.08e-01f  1
  45 -1.7324107e-01 1.48e+00 1.72e+05  -6.0 4.83e+01    -  4.19e-01 4.84e-01h  1
  46 -1.8451753e-01 3.30e+00 9.81e+04  -6.0 6.21e+01    -  5.41e-01 4.27e-01h  1
  47 -1.9017778e-01 3.40e+00 7.73e+04  -6.0 1.09e+02    -  3.39e-01 2.12e-01h  1
  48 -1.9514858e-01 2.69e+00 6.05e+04  -6.0 1.84e+02    -  4.93e-01 2.18e-01h  1
  49 -1.9827753e-01 1.57e+00 5.01e+04  -6.0 2.94e+02    -  5.54e-01 1.71e-01h  1
iter    objective    inf_pr   inf_du lg(mu)  ||d||  lg(rg) alpha_du alpha_pr  ls
  50 -2.0695372e-01 2.82e+01 2.35e+04  -6.0 5.94e+02    -  5.16e-01 5.35e-01h  1
  51 -2.0695230e-01 2.82e+01 2.34e+04  -6.0 1.32e+00  -0.3 2.15e-03 2.70e-03h  1
  52 -2.0694446e-01 2.79e+01 2.32e+04  -6.0 1.32e+00  -0.8 4.50e-02 9.10e-03h  1
  53 -2.0691470e-01 2.70e+01 2.24e+04  -6.0 1.29e+00  -1.3 1.64e-02 3.17e-02h  1
  54 -2.0688311e-01 2.62e+01 2.17e+04  -6.0 1.33e+00  -1.7 2.14e-01 3.20e-02h  1
  55 -2.0674576e-01 2.25e+01 1.87e+04  -6.0 1.41e+00  -2.2 1.28e-01 1.39e-01h  1
  56 -2.0653246e-01 1.69e+01 1.41e+04  -6.0 1.48e+00  -2.7 4.72e-01 2.49e-01h  1
  57 -2.0594914e-01 4.29e-01 5.21e+01  -6.0 1.40e+00  -3.2 4.11e-01 1.00e+00h  1
  58 -2.0601555e-01 2.80e-03 5.28e+00  -6.0 3.17e-01  -3.6 6.92e-01 1.00e+00h  1
  59 -2.0623602e-01 7.26e-03 1.58e+00  -6.0 6.02e-01  -4.1 7.68e-01 1.00e+00h  1
iter    objective    inf_pr   inf_du lg(mu)  ||d||  lg(rg) alpha_du alpha_pr  ls
  60 -2.0683740e-01 7.93e-02 5.74e-01  -6.0 1.69e+00  -4.6 1.00e+00 1.00e+00h  1
  61 -2.0708816e-01 8.56e-02 1.08e+01  -6.0 4.77e+00  -5.1 4.63e-01 1.82e-01h  1
  62 -2.0753933e-01 7.44e-02 1.58e+01  -6.0 1.96e+01  -5.6 1.52e-01 9.67e-02h  1
  63 -2.0840557e-01 2.37e+00 8.86e+02  -6.0 2.60e+01  -6.0 7.48e-02 1.89e-01h  1
  64 -2.0852608e-01 2.34e+00 5.89e+03  -6.0 4.02e+01  -6.5 1.30e-01 1.06e-02h  1
  65 -2.0888987e-01 2.22e+00 6.75e+03  -6.0 1.19e+02  -7.0 1.70e-01 5.20e-02h  1
  66 -2.0969894e-01 1.83e+00 7.14e+03  -6.0 1.01e+02  -7.5 3.26e-01 1.91e-01h  1
  67 -2.0996514e-01 1.77e+00 1.36e+04  -6.0 3.18e+02  -7.9 3.55e-01 3.53e-02h  1
  68 -2.1188445e-01 6.34e+00 1.36e+04  -6.0 8.85e+04  -8.4 8.49e-03 5.25e-03h  1
  69 -2.1278609e-01 6.34e+00 2.67e+04  -6.0 1.81e+03  -8.0 8.79e-01 4.15e-02h  1
iter    objective    inf_pr   inf_du lg(mu)  ||d||  lg(rg) alpha_du alpha_pr  ls
  70 -2.1357415e-01 5.53e+00 2.51e+04  -6.0 1.98e+02  -7.6 1.00e+00 1.40e-01h  1
  71 -2.1507828e-01 4.46e+00 2.50e+04  -6.0 3.72e+02  -8.0 8.32e-01 2.15e-01h  1
  72 -2.1664514e-01 3.98e+00 4.54e+04  -6.0 8.03e+02  -8.5 1.00e+00 1.23e-01h  1
  73 -2.1763435e-01 3.82e+00 8.39e+04  -6.0 7.44e+03  -9.0 2.80e-01 4.31e-02h  1
  74 -2.2114542e-01 2.45e+00 6.13e+04  -6.0 7.13e+02  -8.6 1.00e+00 3.70e-01h  1
  75 -2.2542902e-01 2.88e+00 2.97e+04  -6.0 8.17e+02  -8.1 6.43e-02 4.45e-01h  1
  76 -2.2570618e-01 2.81e+00 6.63e+04  -6.0 1.26e+03  -8.6 3.35e-03 3.85e-02h  1
  77 -2.2593096e-01 2.70e+00 7.26e+04  -6.0 1.59e+02  -7.3 3.16e-02 3.82e-02h  1
  78 -2.2593388e-01 2.70e+00 1.62e+05  -6.0 3.01e+03  -7.8 2.27e-04 1.20e-04h  1
  79 -2.2595426e-01 2.52e+00 1.61e+05  -6.0 1.09e+03  -7.3 3.90e-02 6.78e-02h  1
iter    objective    inf_pr   inf_du lg(mu)  ||d||  lg(rg) alpha_du alpha_pr  ls
  80 -2.2728663e-01 2.44e+00 5.27e+04  -6.0 6.40e+02  -7.8 5.44e-04 3.01e-01h  1
  81 -2.3072160e-01 4.29e+00 8.02e+03  -6.0 8.27e+02  -8.3 4.20e-02 4.99e-01h  1
  82 -2.3109155e-01 4.20e+00 7.52e+03  -6.0 2.58e+03  -8.8 2.52e-03 2.08e-02f  1
  83 -2.3106317e-01 4.06e+00 6.66e+03  -6.0 5.75e+02  -8.4 1.33e-04 3.37e-02h  1
  84 -2.3195473e-01 3.67e+00 5.65e+03  -6.0 9.68e+02  -8.8 6.85e-02 1.05e-01h  1
  85 -2.3253925e-01 3.58e+00 5.51e+03  -6.0 7.12e+02  -6.6 2.83e-03 2.44e-02h  1
  86 -2.3250740e-01 1.42e+00 6.97e+03  -6.0 9.91e+01  -7.1 2.34e-03 6.02e-01h  1
  87 -2.3249255e-01 1.26e+00 7.57e+03  -6.0 8.86e-01  -1.2 1.75e-03 1.17e-01h  1
  88 -2.3248886e-01 1.21e+00 7.57e+03  -6.0 7.81e-01   0.1 1.29e-02 3.53e-02h  1
  89 -2.3248866e-01 1.21e+00 7.56e+03  -6.0 4.41e+00  -0.4 1.32e-03 2.51e-03h  1
iter    objective    inf_pr   inf_du lg(mu)  ||d||  lg(rg) alpha_du alpha_pr  ls
  90 -2.3248855e-01 1.21e+00 6.50e+03  -6.0 7.48e-01   0.1 9.06e-02 9.20e-04h  1
  91 -2.3246367e-01 1.01e+00 7.03e+03  -6.0 8.18e-01  -0.4 1.38e-02 1.68e-01f  1
  92 -2.3233329e-01 8.79e-04 7.31e+03  -6.0 6.20e-01  -0.9 2.78e-01 1.00e+00h  1
  93 -2.3233329e-01 6.67e-07 1.13e+03  -6.0 6.08e-03  -1.4 8.23e-01 1.00e+00h  1
  94 -2.3233396e-01 2.71e-07 2.42e+02  -6.0 3.52e-03  -1.9 7.86e-01 1.00e+00h  1
  95 -2.3233697e-01 1.98e-06 7.22e+01  -6.0 8.18e-03  -2.3 7.01e-01 1.00e+00h  1
  96 -2.3234896e-01 1.66e-05 6.57e-03  -6.0 1.83e-02  -2.8 1.00e+00 1.00e+00h  1
  97 -2.3236608e-01 4.03e-05 1.14e+00  -6.0 5.84e-02  -3.3 1.00e+00 5.10e-01h  1
  98 -2.3240720e-01 1.86e-04 2.12e+00  -6.0 1.71e-01  -3.8 1.00e+00 5.43e-01f  1
  99 -2.3247707e-01 7.29e-04 3.78e+00  -6.0 4.41e-01  -4.2 1.00e+00 4.64e-01f  1
iter    objective    inf_pr   inf_du lg(mu)  ||d||  lg(rg) alpha_du alpha_pr  ls
 100 -2.3259626e-01 2.31e-03 8.17e+00  -6.0 1.05e+00  -4.7 1.00e+00 3.72e-01f  1
 101 -2.3279808e-01 4.91e-03 2.25e+01  -6.0 2.16e+00  -5.2 1.00e+00 3.35e-01f  1
 102 -2.3328356e-01 9.69e-02 7.33e+01  -6.0 3.20e+00  -5.7 5.39e-01 6.67e-01f  1
 103 -2.3365345e-01 1.23e-01 5.70e+01  -6.0 4.85e+00  -6.2 1.00e+00 6.27e-01f  1
 104 -2.3357718e-01 1.10e-02 2.24e+01  -6.0 1.30e+01  -6.6 5.92e-01 1.00e+00f  1
 105 -2.3361762e-01 1.67e+00 5.95e+01  -6.0 8.13e+00  -6.2 1.00e+00 1.00e+00h  1
 106 -2.3364186e-01 3.66e+00 1.02e+02  -6.0 1.29e+02  -6.7 1.89e-01 2.34e-01h  1
 107 -2.3379890e-01 3.25e+00 1.02e+02  -6.0 4.09e+01  -7.2 9.95e-01 1.17e-01h  1
 108 -2.3464168e-01 4.29e-01 1.62e+01  -6.0 6.46e+01  -7.6 1.00e+00 1.00e+00h  1
 109 -2.3704417e-01 2.65e+00 6.82e+01  -6.0 1.93e+02  -8.1 1.00e+00 9.84e-01h  1
iter    objective    inf_pr   inf_du lg(mu)  ||d||  lg(rg) alpha_du alpha_pr  ls
 110 -2.3750737e-01 2.37e+00 6.11e+01  -6.0 5.74e+02  -8.6 9.49e-02 1.06e-01h  1
 111 -2.3879674e-01 2.06e+00 7.92e+02  -6.0 6.13e+02  -9.1 9.53e-01 1.77e-01h  1
 112 -2.3979748e-01 1.91e+00 8.72e+02  -6.0 2.63e+03  -9.5 2.55e-01 8.35e-02h  1
 113 -2.4255466e-01 3.63e+00 7.18e+02  -6.0 7.48e+02  -9.1 1.00e+00 5.27e-01h  1
 114 -2.4582726e-01 1.00e+01 3.53e+02  -6.0 1.99e+03  -9.6 2.47e-02 6.51e-01h  1
 115 -2.4638605e-01 8.67e+00 1.90e+02  -6.0 1.27e+03  -9.2 2.16e-01 1.58e-01h  1
 116 -2.4818225e-01 1.86e+01 4.82e+02  -6.0 6.18e+03  -9.6 6.61e-02 1.18e-01h  1
 117 -2.5130044e-01 3.14e+01 6.05e+03  -6.0 1.48e+03  -9.2 6.37e-02 7.24e-01h  1
 118 -2.5111468e-01 2.84e+01 3.42e+03  -6.0 1.37e+03  -8.8 4.18e-01 1.16e-01h  1
 119 -2.5147763e-01 1.87e+00 8.68e+03  -6.0 1.50e+02  -8.4 2.01e-01 9.42e-01h  1
iter    objective    inf_pr   inf_du lg(mu)  ||d||  lg(rg) alpha_du alpha_pr  ls
 120 -2.5185278e-01 1.52e+00 6.67e+05  -6.0 3.95e+02  -8.8 2.72e-03 1.86e-01h  1
 121 -2.5385222e-01 8.70e+00 3.09e+05  -6.0 1.52e+03  -9.3 3.33e-01 5.37e-01h  1
 122 -2.5507761e-01 2.00e+01 2.10e+05  -6.0 3.40e+03  -9.8 1.04e-01 3.22e-01h  1
 123 -2.5513036e-01 1.99e+01 2.08e+05  -6.0 4.64e+02  -7.6 1.06e-02 7.09e-03h  1
 124 -2.5566745e-01 1.46e+01 1.52e+05  -6.0 8.08e+01  -8.0 2.27e-02 2.69e-01h  1
 125 -2.5562310e-01 9.99e+00 1.04e+05  -6.0 3.58e+02  -8.5 3.21e-01 3.14e-01h  1
 126 -2.5675417e-01 6.78e+00 1.44e+04  -6.0 3.73e+02  -9.0 5.07e-02 8.61e-01h  1
 127 -2.5690496e-01 6.28e+00 1.33e+04  -6.0 7.86e+02  -9.5 4.37e-01 7.60e-02h  1
 128 -2.5722962e-01 5.72e+00 1.20e+04  -6.0 2.73e+03 -10.0 1.85e-01 9.81e-02h  1
 129 -2.5802053e-01 4.77e+00 9.39e+03  -6.0 3.80e+03 -10.4 2.51e-01 2.17e-01h  1
iter    objective    inf_pr   inf_du lg(mu)  ||d||  lg(rg) alpha_du alpha_pr  ls
 130 -2.5803189e-01 4.38e+00 8.62e+03  -6.0 3.70e+02  -8.2 8.17e-02 8.25e-02h  1
 131 -2.5813131e-01 2.75e+00 5.39e+03  -6.0 1.53e+02  -8.7 3.01e-01 3.74e-01h  1
 132 -2.5852334e-01 5.73e-01 8.75e+02  -6.0 5.09e+02  -9.2 4.65e-01 8.38e-01h  1
 133 -2.5855039e-01 5.53e-01 8.44e+02  -6.0 5.60e+02  -9.6 2.00e-01 3.54e-02h  1
 134 -2.5883518e-01 3.07e+00 4.19e+02  -6.0 7.91e+02 -10.1 4.54e-01 5.03e-01h  1
 135 -2.5896288e-01 2.93e+00 2.96e+02  -6.0 1.38e+03 -10.6 1.76e-01 2.93e-01h  1
 136 -2.5903301e-01 3.02e+00 6.06e+02  -6.0 1.47e+03 -10.2 6.01e-01 1.69e-01h  1
 137 -2.5901423e-01 2.99e+00 5.94e+02  -6.0 1.88e+03  -8.8 3.89e-03 1.18e-02h  1
 138 -2.5900057e-01 2.68e+00 1.38e+03  -6.0 2.24e+02  -7.5 4.02e-05 1.01e-01h  1
 139 -2.5901910e-01 2.43e+00 1.68e+03  -6.0 9.82e+01  -8.0 8.20e-03 9.51e-02h  1
iter    objective    inf_pr   inf_du lg(mu)  ||d||  lg(rg) alpha_du alpha_pr  ls
 140 -2.5902172e-01 2.43e+00 1.68e+03  -6.0 1.60e+04  -8.5 1.05e-07 3.16e-04h  1
 141 -2.5902094e-01 2.43e+00 1.68e+03  -6.0 2.92e+04  -8.9 8.50e-05 7.76e-05h  1
 142 -2.5902413e-01 2.43e+00 1.68e+03  -6.0 2.46e+05  -9.4 4.48e-08 2.66e-05f  1
 143 -2.5902147e-01 2.43e+00 1.68e+03  -6.0 5.01e+04  -9.9 8.97e-04 1.05e-04h  1
 144 -2.5902444e-01 2.42e+00 1.67e+03  -6.0 1.01e+04 -10.4 5.42e-05 8.07e-04f  1
 145 -2.5903207e-01 2.38e+00 1.65e+03  -6.0 1.11e+04 -10.8 1.42e-02 2.13e-02f  2
 146 -2.5906564e-01 2.31e+00 1.52e+03  -6.0 1.14e+03 -10.4 7.65e-02 6.36e-02h  1
 147 -2.5928518e-01 1.92e+01 9.81e+02  -6.0 2.44e+03 -10.9 3.01e-01 4.82e-01f  1
 148 -2.5929378e-01 1.66e+01 2.02e+03  -6.0 1.60e+03  -9.6 8.51e-02 1.36e-01h  1
 149 -2.5933798e-01 1.27e+01 1.66e+03  -6.0 1.04e+03 -10.0 3.73e-01 2.35e-01h  1
iter    objective    inf_pr   inf_du lg(mu)  ||d||  lg(rg) alpha_du alpha_pr  ls
 150 -2.5934436e-01 1.09e+01 3.00e+03  -6.0 3.70e+02  -9.6 1.00e+00 1.48e-01h  1
 151 -2.5931324e-01 3.57e-01 6.07e+03  -6.0 1.40e+02  -9.2 1.71e-01 1.00e+00h  1
 152 -2.5929824e-01 2.79e-01 4.74e+03  -6.0 2.27e+02  -7.9 2.25e-01 2.20e-01h  1
 153 -2.5926635e-01 1.05e-03 1.99e+02  -6.0 1.37e+01  -6.5 3.49e-01 1.00e+00f  1
 154 -2.5929947e-01 1.21e-03 6.81e+01  -6.0 2.19e+00  -6.1 6.13e-01 1.00e+00h  1
 155 -2.5931763e-01 9.56e-04 3.45e-01  -6.0 2.95e+00  -6.6 1.00e+00 1.00e+00h  1
 156 -2.5931854e-01 1.21e-03 1.86e+00  -6.0 1.00e+01  -7.1 1.00e+00 3.20e-01h  1
 157 -2.5932401e-01 7.11e-04 1.97e-02  -6.0 4.14e+00  -7.5 1.00e+00 1.00e+00f  1
 158 -2.5933044e-01 8.40e-04 1.53e-03  -6.0 7.13e+00  -8.0 1.00e+00 1.00e+00h  1
 159 -2.5933617e-01 7.16e-03 2.05e-03  -6.0 2.08e+01  -8.5 1.00e+00 1.00e+00h  1
iter    objective    inf_pr   inf_du lg(mu)  ||d||  lg(rg) alpha_du alpha_pr  ls
 160 -2.5934311e-01 5.53e-02 2.46e-02  -6.0 5.79e+01  -9.0 1.00e+00 1.00e+00h  1
 161 -2.5934900e-01 6.19e-01 3.38e-01  -6.0 1.88e+02  -9.4 1.00e+00 1.00e+00h  1
 162 -2.5936509e-01 2.54e+01 8.10e+01  -6.0 1.72e+03  -9.9 2.52e-01 1.00e+00H  1
 163 -2.5933327e-01 4.54e-01 1.52e+02  -6.0 1.81e+02  -8.6 9.12e-02 1.00e+00h  1
 164 -2.5939023e-01 1.25e+00 5.54e+00  -6.0 7.18e+02  -9.1 4.19e-01 1.00e+00H  1
 165 -2.5935865e-01 6.48e-01 6.99e-01  -6.0 1.85e+02  -9.5 1.00e+00 1.00e+00h  1
 166 -2.5935890e-01 6.36e-01 4.27e+01  -6.0 2.53e+03 -10.0 1.00e+00 1.79e-02h  2
 167 -2.5935697e-01 9.80e+00 6.93e-01  -6.0 8.85e+02 -10.5 1.00e+00 1.00e+00h  1
 168 -2.5936020e-01 4.54e+00 9.34e+00  -6.0 4.64e+02 -10.1 1.00e+00 5.62e-01h  1
 169 -2.5935760e-01 3.61e+00 1.91e+01  -6.0 1.45e+03 -10.5 1.00e+00 2.10e-01h  1
iter    objective    inf_pr   inf_du lg(mu)  ||d||  lg(rg) alpha_du alpha_pr  ls
 170 -2.5935392e-01 3.22e+00 1.21e+01  -6.0 1.25e+03 -10.1 1.74e-01 3.34e-01h  1
 171 -2.5937281e-01 1.18e+01 1.08e+01  -6.0 1.37e+03 -10.6 4.09e-01 7.52e-01H  1
 172 -2.5934984e-01 1.74e+00 1.06e+01  -6.0 3.85e+02  -8.4 1.97e-02 1.00e+00h  1
 173 -2.5934723e-01 4.75e-03 2.45e-03  -6.0 1.34e+01  -8.8 1.00e+00 1.00e+00h  1
 174 -2.5934585e-01 4.24e-02 9.03e-03  -6.0 5.12e+01  -9.3 1.00e+00 1.00e+00h  1
 175 -2.5934374e-01 2.18e+00 7.46e-01  -6.0 2.05e+02  -9.8 8.83e-01 1.00e+00h  1
 176 -2.5934448e-01 9.76e-01 9.17e+00  -6.0 6.13e+02 -10.3 1.00e+00 6.46e-01H  1
 177 -2.5933778e-01 5.71e-01 1.21e+00  -6.0 1.82e+02  -9.9 1.00e+00 8.99e-01h  1
 178 -2.5933512e-01 3.88e+00 3.36e+00  -6.0 5.06e+02 -10.3 1.00e+00 1.00e+00h  1
 179 -2.5933308e-01 1.23e-02 1.43e-01  -6.0 2.84e+01  -9.0 1.00e+00 1.00e+00h  1
iter    objective    inf_pr   inf_du lg(mu)  ||d||  lg(rg) alpha_du alpha_pr  ls
 180 -2.5933288e-01 8.29e-02 1.02e-01  -6.0 7.45e+01  -9.5 1.00e+00 1.00e+00h  1
 181 -2.5933061e-01 8.45e-01 1.36e+00  -6.0 2.33e+02 -10.0 1.00e+00 1.00e+00h  1
 182 -2.5933580e-01 6.88e-01 1.48e+01  -6.0 8.30e+02 -10.4 8.76e-01 7.11e-01H  1
 183 -2.5931899e-01 2.34e+00 2.06e+01  -6.0 3.80e+02 -10.0 1.00e+00 1.00e+00h  1
 184 -2.5946035e-01 1.94e+01 1.36e+01  -6.0 1.26e+03 -10.5 7.68e-01 1.00e+00H  1
 185 -2.5946805e-01 6.38e+01 7.46e+00  -6.0 2.32e+03    -  1.00e+00 1.00e+00H  1
 186 -2.5938525e-01 1.82e+01 2.53e+01  -6.0 2.55e+03 -11.0 3.96e-01 4.29e-01h  2
 187 -2.5936829e-01 7.15e+00 1.02e+02  -6.0 2.58e+03    -  2.90e-01 2.45e-01h  2
 188 -2.5938823e-01 7.00e+00 1.82e+02  -6.0 6.61e+02  -8.7 3.09e-02 2.17e-02h  2
 189 -2.5955652e-01 6.86e+00 3.87e+01  -6.0 2.14e+02  -8.3 2.10e-01 2.77e-01h  1
iter    objective    inf_pr   inf_du lg(mu)  ||d||  lg(rg) alpha_du alpha_pr  ls
 190 -2.6002808e-01 5.78e+01 5.34e+02  -6.0 1.29e+04    -  2.67e-02 1.47e-01h  1
 191 -2.5998815e-01 5.74e+01 5.34e+02  -6.0 3.93e+03    -  2.20e-04 7.17e-03h  1
 192 -2.5998446e-01 2.67e+01 4.77e+02  -6.0 4.35e+02    -  5.49e-02 5.44e-01h  1
 193 -2.5998008e-01 1.88e+01 2.15e+03  -6.0 1.79e+02    -  5.71e-03 2.95e-01h  1
 194 -2.5991020e-01 7.37e-01 4.04e+02  -6.0 1.64e+02    -  1.28e-01 1.00e+00h  1
 195 -2.6010318e-01 2.13e+00 2.63e+02  -6.0 3.38e+02  -8.8 8.45e-01 1.00e+00h  1
 196 -2.6007876e-01 4.97e+00 4.43e+01  -6.0 5.06e+02    -  5.68e-01 1.00e+00h  1
 197 -2.6014825e-01 5.78e+00 1.43e+01  -6.0 1.16e+02    -  1.00e+00 1.00e+00h  1
 198 -2.6013027e-01 5.07e-02 9.23e-02  -6.0 4.95e+01    -  1.00e+00 1.00e+00h  1
 199 -2.6013237e-01 1.15e-02 2.96e-02  -6.0 2.51e+01    -  1.00e+00 1.00e+00h  1
iter    objective    inf_pr   inf_du lg(mu)  ||d||  lg(rg) alpha_du alpha_pr  ls
 200 -2.6013253e-01 8.83e-05 3.88e-05  -6.0 2.21e+00    -  1.00e+00 1.00e+00h  1
 201 -2.6013253e-01 1.27e-09 5.97e-10  -6.0 8.43e-03    -  1.00e+00 1.00e+00h  1
 202 -2.6064116e-01 1.57e+00 6.98e+01  -7.5 2.22e+03    -  4.68e-01 2.23e-01f  1
 203 -2.6075183e-01 1.60e+00 6.45e+01  -7.5 2.42e+03    -  6.40e-02 6.77e-02h  1
 204 -2.6076987e-01 1.58e+00 1.21e+02  -7.5 4.45e+02  -9.3 4.12e-01 1.58e-02h  1
 205 -2.6129303e-01 7.36e+00 4.22e+01  -7.5 2.79e+03    -  3.28e-03 3.79e-01h  1
 206 -2.6132721e-01 7.18e+00 6.29e+01  -7.5 6.03e+03    -  2.29e-01 4.09e-02h  1
 207 -2.6140313e-01 6.02e+00 1.36e+02  -7.5 3.13e+02  -9.7 1.44e-02 1.63e-01h  1
 208 -2.6148989e-01 5.38e+00 1.12e+02  -7.5 2.17e+03    -  9.78e-03 1.72e-01h  1
 209 -2.6152578e-01 4.78e+00 9.99e+01  -7.5 4.88e+02 -10.2 2.08e-01 1.11e-01h  1
iter    objective    inf_pr   inf_du lg(mu)  ||d||  lg(rg) alpha_du alpha_pr  ls
 210 -2.6170753e-01 3.96e+00 5.92e+01  -7.5 2.09e+03    -  2.76e-02 4.04e-01f  1
 211 -2.6184492e-01 1.82e+00 2.52e+01  -7.5 1.34e+03    -  6.86e-01 5.74e-01h  1
 212 -2.6186163e-01 1.55e+00 2.15e+01  -7.5 1.03e+03    -  2.03e-01 1.48e-01h  1
 213 -2.6187994e-01 1.08e+00 1.64e+01  -7.5 2.84e+02 -10.7 8.91e-01 3.09e-01h  1
 214 -2.6191265e-01 7.51e+00 1.98e+00  -7.5 7.19e+02 -11.2 1.00e+00 8.74e-01h  1
 215 -2.6192487e-01 8.03e+01 8.82e-01  -7.5 2.91e+03    -  8.59e-02 9.08e-01h  1
 216 -2.6192302e-01 7.43e+01 5.77e-01  -7.5 4.67e+03    -  6.44e-02 1.46e-01h  2
 217 -2.6192176e-01 5.32e+01 3.09e-01  -7.5 2.31e+03    -  4.23e-01 4.65e-01h  2
 218 -2.6192320e-01 9.84e-02 6.09e-01  -7.5 4.05e+01 -10.7 3.95e-01 1.00e+00h  1
 219 -2.6192342e-01 1.32e-01 5.13e-04  -7.5 5.16e+01    -  1.00e+00 1.00e+00h  1
iter    objective    inf_pr   inf_du lg(mu)  ||d||  lg(rg) alpha_du alpha_pr  ls
 220 -2.6192367e-01 1.99e+01 5.00e-01  -7.5 1.29e+03 -11.2 7.56e-02 1.00e+00h  1
 221 -2.6192411e-01 8.82e+00 2.46e-02  -7.5 8.20e+02 -11.7 1.00e+00 1.00e+00h  1
 222 -2.6192512e-01 4.81e+01 7.10e-02  -7.5 1.93e+03 -12.2 1.00e+00 1.00e+00h  1
 223 -2.6192515e-01 4.81e+01 1.02e+00  -7.5 6.28e+04    -  2.36e-02 6.70e-04h  6
 224 -2.6192577e-01 5.12e+01 2.82e+00  -7.5 7.52e+03    -  5.81e-01 1.00e-01h  2
 225 -2.6192732e-01 6.03e+01 1.57e+00  -7.5 2.93e+03    -  1.18e-01 5.40e-01h  1
 226 -2.6192891e-01 2.60e+01 2.29e+00  -7.5 1.25e+03    -  4.14e-02 1.00e+00h  1
 227 -2.6193001e-01 1.56e+01 6.01e-01  -7.5 9.58e+02    -  7.52e-01 1.00e+00h  1
 228 -2.6192992e-01 8.46e-02 9.88e-03  -7.5 8.63e+01    -  1.00e+00 1.00e+00h  1
 229 -2.6192991e-01 8.84e-04 4.40e-05  -7.5 7.32e+00    -  1.00e+00 1.00e+00h  1
iter    objective    inf_pr   inf_du lg(mu)  ||d||  lg(rg) alpha_du alpha_pr  ls
 230 -2.6192991e-01 2.95e-09 4.14e-10  -7.5 1.41e-02    -  1.00e+00 1.00e+00h  1
 231 -2.6193232e-01 2.66e+00 2.53e+00  -9.0 1.63e+03    -  5.20e-01 2.44e-01h  1
 232 -2.6193561e-01 5.63e+01 4.27e-01  -9.0 3.09e+03    -  4.08e-01 5.84e-01h  1
 233 -2.6193637e-01 3.87e+01 1.02e+01  -9.0 1.48e+03    -  6.50e-03 5.45e-01h  1
 234 -2.6193740e-01 3.72e+01 2.19e+00  -9.0 1.43e+03    -  1.01e-01 8.87e-01h  1
 235 -2.6193822e-01 2.84e+01 1.28e+00  -9.0 1.13e+03    -  4.52e-01 1.00e+00h  1
 236 -2.6193874e-01 3.84e+01 1.12e+00  -9.0 9.44e+03    -  1.28e-01 7.79e-02h  1
 237 -2.6193921e-01 2.78e+01 3.36e+00  -9.0 1.66e+03    -  2.29e-01 3.41e-01h  1
 238 -2.6193921e-01 2.78e+01 3.67e+00  -9.0 1.27e+05    -  5.84e-03 9.01e-05h  9
 239 -2.6193970e-01 1.70e+00 4.18e+01  -9.0 3.81e+02 -12.6 1.37e-01 1.00e+00h  1
iter    objective    inf_pr   inf_du lg(mu)  ||d||  lg(rg) alpha_du alpha_pr  ls
 240 -2.6193971e-01 6.94e-01 1.69e+01  -9.0 6.84e+01 -11.3 9.57e-01 5.96e-01h  1
 241 -2.6193970e-01 5.51e-01 1.19e-02  -9.0 7.44e+01 -11.8 6.39e-01 1.00e+00h  1
 242 -2.6193976e-01 1.57e+00 7.80e-03  -9.0 2.65e+02 -12.3 3.54e-01 1.00e+00h  1
 243 -2.6193992e-01 1.18e+01 1.32e-02  -9.0 9.89e+02 -12.7 1.74e-01 1.00e+00h  1
 244 -2.6194011e-01 7.44e+00 9.71e-04  -9.0 7.86e+02 -12.3 1.00e+00 1.00e+00h  1
 245 -2.6194079e-01 5.65e+01 6.82e-03  -9.0 2.14e+03 -12.8 1.00e+00 1.00e+00h  1
 246 -2.6194148e-01 1.52e+01 3.06e-03  -9.0 1.01e+03 -12.4 1.00e+00 1.00e+00h  1
 247 -2.6194262e-01 7.46e+01 1.27e-02  -9.0 7.75e+03 -12.9 1.94e-01 2.76e-01h  1
 248 -2.6194270e-01 7.34e+01 6.77e-02  -9.0 1.88e+04 -13.3 7.83e-02 1.54e-02h  4
 249 -2.6194296e-01 6.65e+01 2.88e-02  -9.0 2.63e+03 -12.9 6.56e-02 1.08e-01h  1
iter    objective    inf_pr   inf_du lg(mu)  ||d||  lg(rg) alpha_du alpha_pr  ls
 250 -2.6194300e-01 6.62e+01 8.25e-02  -9.0 2.86e+04 -13.4 4.33e-02 4.77e-03h  5
 251 -2.6194473e-01 7.44e+01 3.51e-01  -9.0 3.20e+03 -13.0 3.05e-01 7.06e-01h  1
 252 -2.6194495e-01 6.28e+01 5.53e-01  -9.0 1.90e+03    -  6.70e-02 1.56e-01h  1
 253 -2.6194513e-01 6.38e+01 4.54e-01  -9.0 2.00e+04    -  4.19e-02 1.87e-02h  1
 254 -2.6194735e-01 5.86e+01 1.40e+00  -9.0 1.87e+03    -  5.82e-01 1.00e+00h  1
 255 -2.6194785e-01 4.77e+01 1.33e+00  -9.0 1.84e+03    -  2.09e-01 2.54e-01h  1
 256 -2.6194834e-01 3.87e+01 5.49e-01  -9.0 1.68e+03    -  3.69e-01 2.66e-01h  1
 257 -2.6194937e-01 3.40e+01 2.52e-01  -9.0 1.68e+03    -  4.84e-01 5.80e-01h  1
 258 -2.6195033e-01 3.36e+01 5.41e+02  -9.0 1.56e+03    -  7.62e-03 6.73e-01h  1
 259 -2.6195033e-01 3.11e+01 4.91e+02  -9.0 2.42e+03    -  5.13e-02 9.20e-02h  1
iter    objective    inf_pr   inf_du lg(mu)  ||d||  lg(rg) alpha_du alpha_pr  ls
 260 -2.6195134e-01 4.55e+01 7.26e+01  -9.0 1.64e+03    -  6.19e-02 8.81e-01h  1
 261 -2.6195137e-01 4.54e+01 7.37e+01  -9.0 2.57e+04    -  2.52e-02 3.21e-03h  3
 262 -2.6195152e-01 4.11e+01 6.62e+01  -9.0 3.64e+03    -  4.96e-02 1.01e-01h  1
 263 -2.6195165e-01 2.89e+01 4.79e+01  -9.0 1.03e+03    -  5.41e-02 3.09e-01h  1
 264 -2.6195159e-01 1.84e+01 2.29e+01  -9.0 8.95e+02    -  6.61e-02 1.00e+00h  1
 265 -2.6195165e-01 1.63e+01 2.05e+01  -9.0 2.44e+03    -  1.22e-02 1.16e-01h  3
 266 -2.6195174e-01 1.31e+01 1.57e+01  -9.0 2.13e+03    -  4.79e-01 1.97e-01h  2
 267 -2.6195184e-01 1.15e+01 1.23e+01  -9.0 2.00e+03    -  3.53e-01 2.05e-01h  1
 268 -2.6195187e-01 3.92e+00 4.52e-02  -9.0 4.04e+02    -  9.68e-01 1.00e+00h  1
 269 -2.6195201e-01 5.85e+00 2.86e-02  -9.0 1.78e+03    -  5.20e-01 1.89e-01h  1
iter    objective    inf_pr   inf_du lg(mu)  ||d||  lg(rg) alpha_du alpha_pr  ls
 270 -2.6195204e-01 1.05e+00 8.93e-05  -9.0 2.10e+02    -  1.00e+00 1.00e+00h  1
 271 -2.6195205e-01 4.21e-03 6.24e-06  -9.0 1.22e+01    -  1.00e+00 1.00e+00h  1
 272 -2.6195205e-01 1.25e-06 2.82e-10  -9.0 2.24e-01    -  1.00e+00 1.00e+00h  1
 273 -2.6195205e-01 3.87e-10 1.84e-14  -9.0 1.43e-05    -  1.00e+00 1.00e+00h  1

Number of Iterations....: 273

                                   (scaled)                 (unscaled)
Objective...............:  -2.6195204910856495e-01   -2.6195204910856495e-01
Dual infeasibility......:   1.8417283064644515e-14    1.8417283064644515e-14
Constraint violation....:   3.8663683300972640e-10    3.8663683300972640e-10
Complementarity.........:   9.0909091854472851e-10    9.0909091854472851e-10
Overall NLP error.......:   9.0909091854472851e-10    9.0909091854472851e-10


Number of objective function evaluations             = 396
Number of objective gradient evaluations             = 273
Number of equality constraint evaluations            = 396
Number of inequality constraint evaluations          = 397
Number of equality constraint Jacobian evaluations   = 276
Number of inequality constraint Jacobian evaluations = 276
Number of Lagrangian Hessian evaluations             = 273
Total CPU secs in IPOPT (w/o function evaluations)   =    629.299
Total CPU secs in NLP function evaluations           =     11.811

EXIT: Optimal Solution Found.
